Gurobi Optimizer version 9.1.2 build v9.1.2rc0 (linux64)
Thread count: 36 physical cores, 72 logical processors, using up to 32 threads
Optimize a model with 12 rows, 57 columns and 590 nonzeros
Model fingerprint: 0xf32eec78
Model has 47 quadratic constraints
Coefficient statistics:
  Matrix range     [2e-05, 3e+00]
  QMatrix range    [1e+00, 1e+00]
  QLMatrix range   [1e+00, 1e+00]
  Objective range  [8e-03, 7e-01]
  Bounds range     [1e+00, 1e+00]
  RHS range        [1e+00, 1e+00]
Presolve removed 9 rows and 0 columns

Continuous model is non-convex -- solving as a MIP.

Presolve removed 9 rows and 0 columns
Presolve time: 0.00s
Presolved: 189 rows, 57 columns, 443 nonzeros
Presolved model has 47 bilinear constraint(s)
Variable types: 57 continuous, 0 integer (0 binary)

Root relaxation: objective -1.743721e+00, 44 iterations, 0.00 seconds

    Nodes    |    Current Node    |     Objective Bounds      |     Work
 Expl Unexpl |  Obj  Depth IntInf | Incumbent    BestBd   Gap | It/Node Time

     0     0   -1.74372    0   38          -   -1.74372      -     -    0s
H    0     0                       0.6147548   -1.74372   384%     -    0s
     0     0   -1.64739    0    1    0.61475   -1.64739   368%     -    0s
H    0     0                      -1.6450460   -1.64739  0.14%     -    0s
     0     0     cutoff    0        -1.64505   -1.64505  0.00%     -    0s

Cutting planes:
  RLT: 25
  BQP: 3

Explored 1 nodes (76 simplex iterations) in 0.01 seconds
Thread count was 32 (of 72 available processors)

Solution count 2: -1.64505 0.614755 
No other solutions better than -1.64505

Optimal solution found (tolerance 1.00e-04)
Best objective -1.645045978473e+00, best bound -1.645045978473e+00, gap 0.0000%

User-callback calls 78, time in user-callback 0.00 sec
Gurobi Optimizer version 9.1.2 build v9.1.2rc0 (linux64)
Thread count: 36 physical cores, 72 logical processors, using up to 32 threads
Optimize a model with 60 rows, 312 columns and 16100 nonzeros
Model fingerprint: 0x1fb4a5a7
Model has 262 quadratic constraints
Coefficient statistics:
  Matrix range     [4e-07, 7e+00]
  QMatrix range    [1e+00, 1e+00]
  QLMatrix range   [1e+00, 1e+00]
  Objective range  [4e-03, 1e+00]
  Bounds range     [1e+00, 1e+00]
  RHS range        [1e+00, 1e+00]
Presolve removed 16 rows and 0 columns

Continuous model is non-convex -- solving as a MIP.

Presolve removed 16 rows and 0 columns
Presolve time: 0.01s
Presolved: 1080 rows, 312 columns, 13136 nonzeros
Presolved model has 262 bilinear constraint(s)
Variable types: 312 continuous, 0 integer (0 binary)

Root relaxation: objective -2.127219e+01, 311 iterations, 0.02 seconds

    Nodes    |    Current Node    |     Objective Bounds      |     Work
 Expl Unexpl |  Obj  Depth IntInf | Incumbent    BestBd   Gap | It/Node Time

     0     0  -21.27219    0  100          -  -21.27219      -     -    0s
     0     0  -20.53630    0   62          -  -20.53630      -     -    0s
     0     0  -20.51943    0   56          -  -20.51943      -     -    0s
     0     0  -20.46764    0   56          -  -20.46764      -     -    0s
     0     0  -20.46741    0   40          -  -20.46741      -     -    0s
     0     0  -20.45481    0   56          -  -20.45481      -     -    0s
     0     0  -20.45293    0   56          -  -20.45293      -     -    0s
     0     0  -20.45288    0   56          -  -20.45288      -     -    0s
     0     0  -20.45263    0   51          -  -20.45263      -     -    0s
     0     0  -20.45226    0   56          -  -20.45226      -     -    0s
     0     2  -20.45226    0   56          -  -20.45226      -     -    0s
* 2205  2307              53     -18.1971334  -20.12450  10.6%  37.2    1s
* 2376  1846              52     -19.8642060  -20.12450  1.31%  36.0    1s
* 3218  1935              53     -20.0246063  -20.10269  0.39%  32.4    1s
* 4367  1798              41     -20.0258326  -20.08678  0.30%  27.8    2s
* 4561  1801              54     -20.0258412  -20.08678  0.30%  27.2    2s
* 4562  1801              54     -20.0258448  -20.08678  0.30%  27.1    2s
* 4847  1816              57     -20.0268339  -20.08678  0.30%  26.4    2s
* 4849  1816              56     -20.0272127  -20.08678  0.30%  26.4    2s
* 4851  1816              56     -20.0275050  -20.08678  0.30%  26.4    2s
* 5079  1806              56     -20.0275054  -20.07868  0.26%  25.7    2s
* 5407  1878              39     -20.0275528  -20.07868  0.26%  24.8    2s
* 5408  1878              39     -20.0275544  -20.07868  0.26%  24.8    2s
* 5412  1878              39     -20.0277201  -20.07868  0.25%  24.8    2s
* 5486  1882              48     -20.0297168  -20.07868  0.24%  24.7    2s
* 5487  1882              48     -20.0297171  -20.07868  0.24%  24.7    2s
* 5489  1882              48     -20.0297175  -20.07868  0.24%  24.6    2s
* 5765  1896              48     -20.0297178  -20.06366  0.17%  23.9    2s
* 5804  1896              47     -20.0300602  -20.06366  0.17%  23.8    2s
* 7207   961              50     -20.0304696  -20.06366  0.17%  23.6    3s
* 7211   911              51     -20.0304811  -20.06366  0.17%  23.6    3s
* 7530   924              53     -20.0306792  -20.06366  0.16%  23.0    3s
* 7663   905              54     -20.0306811  -20.06366  0.16%  22.8    3s
* 7744   836              56     -20.0320780  -20.06366  0.16%  22.6    3s
* 7877   811              57     -20.0320884  -20.06366  0.16%  22.4    3s
* 8122   840              54     -20.0377702  -20.06366  0.13%  22.0    3s
* 8481   952              64     -20.0410432  -20.06366  0.11%  21.4    3s
* 9608  1056              55     -20.0410699  -20.06366  0.11%  19.9    3s
* 9609  1056              55     -20.0410705  -20.06366  0.11%  19.9    3s
* 9724  1072              59     -20.0417079  -20.06366  0.11%  19.7    3s
* 9825  1072              54     -20.0419427  -20.06366  0.11%  19.6    3s
* 9827  1072              55     -20.0419520  -20.06366  0.11%  19.6    3s
*10260  1092              56     -20.0419697  -20.06366  0.11%  19.1    4s
*10309  1136              52     -20.0421323  -20.05964  0.09%  19.1    4s
*10651  1144              62     -20.0425363  -20.05964  0.09%  18.7    4s
*11182  1150              56     -20.0425489  -20.04834  0.03%  18.2    4s
*11183  1150              56     -20.0425532  -20.04834  0.03%  18.2    4s
*11430  1175              57     -20.0425776  -20.04662  0.02%  17.9    4s
*11842  1170              58     -20.0425866  -20.04566  0.02%  17.5    4s
*11892  1170              58     -20.0426464  -20.04566  0.02%  17.5    4s
*11894  1170              57     -20.0426684  -20.04566  0.01%  17.5    4s

Explored 12323 nodes (210678 simplex iterations) in 4.45 seconds
Thread count was 32 (of 72 available processors)

Solution count 10: -20.0427 -20.0426 -20.0426 ... -20.042

Optimal solution found (tolerance 1.00e-04)
Best objective -2.004266835785e+01, best bound -2.004458510026e+01, gap 0.0096%

User-callback calls 25452, time in user-callback 0.01 sec



objective value: -20.042668357851074
objective bound: -20.04458510025969
x_opt: [0.9542873933794783, 1.0, 0.0, 0.2790313551332455, 0.0, 0.0, 1.0, 0.0, 0.0, 0.0, 1.0, 0.0, 1.0, 1.0, 0.01457106924007171, 1.0, 0.0, 1.0, 0.0, 0.0, 1.0, 0.7602657841792005, 0.0, 0.8555154827702502, 0.0, 0.9120568321493658, 0.0, 1.0, 0.0, 0.0, 0.9999501437823607, 0.9294580305338528, 0.0, 0.3641205209709219, 1.0, 1.0, 0.04373592279159259, 1.0, 0.0, 0.7767430030663224, 1.0, 0.0, 1.0, 0.0, 0.0, 0.07293051907641875, 0.9640522465730262, 0.0, 1.0, 0.2009154230814781]
GUROBI solution time: 4.450714111328125




